(declare-const havoc Int)
(declare-const |K:86:87| Int)
(declare-const |d':75:89| Int)
(declare-const |p':76:88| Int)
(declare-fun pow (Real Real) Real)
(declare-const |havoc:2| Int)
(assert (and (<= (- havoc) 0) (<= (- |havoc:2|) 0)
               (not (= (ite (<= (+ (- |havoc:2|) 1) 0) 1 0) 0))
               (or (not (<= (- |K:86:87|) 0))
                     (= (+ (- (pow 2 |K:86:87|)) |p':76:88|) 0))
               (or (not (and (<= (- |K:86:87|) 0) (<= |K:86:87| 0)))
                     (= (+ |d':75:89| (- (* (pow 2 |K:86:87|) |havoc:2|))) 0))
               (or (not (<= (+ (- |K:86:87|) 1) 0))
                     (= (+ |d':75:89| (- (* (pow 2 |K:86:87|) |havoc:2|))) 0))
               (or (not (and (<= (- |K:86:87|) 0) (<= |K:86:87| 0)))
                     (<= (+ (* 3 |d':75:89|)
                              (- (* (pow 4 |K:86:87|) |havoc:2|))
                              (* -2 |havoc:2|)) 0))
               (or (not (<= (+ (- |K:86:87|) 1) 0))
                     (<= (+ (* 3 |d':75:89|)
                              (- (* (pow 4 |K:86:87|) |havoc:2|))
                              (* -2 |havoc:2|)) 0))
               (or (not (<= (- |K:86:87|) 0))
                     (<= (+ |d':75:89| (- |havoc:2|) (- (* |K:86:87| havoc))) 0))
               (or (not (<= (- |K:86:87|) 0))
                     (<= (+ (- |d':75:89|) (* |K:86:87| |havoc:2|) |havoc:2|) 0))
               (or (not (<= (- |K:86:87|) 0))
                     (<= (+ (- |p':76:88|) |K:86:87| 1) 0))
               (or (and (= |K:86:87| 0) (= (+ (- |p':76:88|) 1) 0)
                          (= (+ (- |d':75:89|) |havoc:2|) 0))
                     (and (<= (+ (- |K:86:87|) 1) 0) (<= (- |havoc:2|) 0)
                            (<= (+ |havoc:2| (- havoc)) 0)
                            (= (+ (- |d':75:89|) (* |p':76:88| |havoc:2|)) 0)
                            (<= (+ (- (* |p':76:88| havoc)) (* 2 havoc)) 0)
                            (<= (+ (* 2 |d':75:89|)
                                     (- (* |d':75:89| |p':76:88|))) 0)
                            (<= (+ (- |p':76:88|) 2) 0) (<= (- |havoc:2|) 0)
                            (<= (+ (- |d':75:89|) (* 2 |havoc:2|)) 0)
                            (<= (+ |d':75:89| (* -2 havoc)) 0)))
               (<= (- |K:86:87|) 0) (< (- |p':76:88|) 0)
               (<= (- |d':75:89|) 0) (<= (- havoc) 0) (<= (- |havoc:2|) 0)
               (<= (- havoc) 0)
               (not (= (+ |d':75:89| (- (* |p':76:88| |havoc:2|))) 0))))
(check-sat)
